
n_res = 6;
rcap = [41, 48, 243, 282, 251, 272];
rtype = [1, 1, 2, 2, 2, 2];
n_tasks = 50;
modes =  [{1, 2, 3}, {4, 5, 6}, {7, 8, 9}, {10, 11, 12}, {13, 14, 15}, {16, 17, 18}, {19, 20, 21}, {22, 23, 24}, {25, 26, 27}, {28, 29, 30}, {31, 32, 33}, {34, 35, 36}, {37, 38, 39}, {40, 41, 42}, {43, 44, 45}, {46, 47, 48}, {49, 50, 51}, {52, 53, 54}, {55, 56, 57}, {58, 59, 60}, {61, 62, 63}, {64, 65, 66}, {67, 68, 69}, {70, 71, 72}, {73, 74, 75}, {76, 77, 78}, {79, 80, 81}, {82, 83, 84}, {85, 86, 87}, {88, 89, 90}, {91, 92, 93}, {94, 95, 96}, {97, 98, 99}, {100, 101, 102}, {103, 104, 105}, {106, 107, 108}, {109, 110, 111}, {112, 113, 114}, {115, 116, 117}, {118, 119, 120}, {121, 122, 123}, {124, 125, 126}, {127, 128, 129}, {130, 131, 132}, {133, 134, 135}, {136, 137, 138}, {139, 140, 141}, {142, 143, 144}, {145, 146, 147}, {148, 149, 150}];
succ =  [{33, 23, 20, 18, 10, 2}, {31, 25, 21, 17, 12}, {33, 26, 8}, {41, 33, 8}, {50, 41, 33, 32, 31, 16}, {50, 32, 26, 21, 16}, {34, 31, 26, 23, 22, 20}, {36, 32, 22, 16}, {50, 41, 36, 34, 33, 32, 29, 28, 27, 25}, {50, 36, 34, 28, 27, 26, 25, 21}, {41, 32, 31, 27, 25, 24, 22}, {34, 32, 27, 26, 24, 22}, {50, 41, 36, 31, 29, 28, 27, 24}, {50, 35, 34, 33, 29, 27, 26}, {50, 38, 36, 28, 25, 23}, {34, 29, 28, 27, 25, 24}, {50, 36, 35, 27, 26, 24}, {50, 41, 36, 35, 32, 28, 24}, {50, 48, 38, 37, 31, 28, 25}, {50, 48, 38, 37, 28, 25}, {46, 38, 35, 24}, {50, 48, 37, 35, 28}, {49, 41, 30, 29}, {49, 48, 47, 37, 30}, {49, 46, 35, 30}, {48, 41, 30}, {48, 46, 43, 40, 38}, {46, 30}, {48, 47, 44, 42, 37}, {45, 43, 40, 39}, {49, 47, 44, 43, 42}, {45, 44, 43, 39}, {49, 44, 43, 39}, {39, 37}, {47, 45, 42}, {43, 39}, {45, 43}, {39}, {42}, {44}, {46}, {}, {}, {}, {}, {}, {}, {}, {}, {}];
n_opt = 150;
dur = [1, 2, 3, 5, 7, 10, 1, 3, 7, 1, 2, 8, 5, 7, 9, 3, 4, 6, 3, 4, 7, 6, 9, 10, 1, 4, 5, 2, 5, 8, 1, 5, 7, 3, 9, 10, 3, 4, 8, 6, 7, 9, 6, 7, 8, 3, 7, 8, 4, 5, 6, 1, 4, 8, 7, 8, 9, 6, 7, 10, 4, 9, 10, 2, 3, 9, 4, 5, 9, 2, 4, 7, 1, 4, 7, 1, 2, 8, 5, 6, 7, 3, 8, 10, 8, 9, 10, 2, 7, 8, 8, 9, 10, 2, 6, 8, 3, 4, 8, 1, 3, 7, 2, 4, 7, 1, 4, 5, 4, 5, 9, 3, 4, 5, 7, 8, 9, 5, 6, 7, 2, 6, 7, 4, 5, 8, 3, 5, 6, 3, 6, 8, 1, 3, 4, 1, 2, 5, 5, 6, 7, 5, 8, 9, 4, 7, 9, 5, 8, 9];
rreq = [|7, 6, 6, 6, 4, 3, 2, 1, 1, 6, 5, 5, 3, 3, 3, 8, 8, 8, 5, 3, 2, 7, 7, 4, 2, 1, 1, 7, 6, 6, 5, 5, 4, 9, 6, 6, 9, 7, 6, 7, 6, 4, 9, 5, 3, 10, 8, 7, 9, 7, 5, 6, 4, 3, 7, 6, 6, 3, 3, 1, 9, 6, 6, 4, 4, 4, 7, 7, 5, 8, 4, 4, 2, 2, 2, 2, 2, 2, 4, 4, 4, 10, 8, 5, 9, 7, 7, 8, 8, 6, 3, 2, 2, 7, 5, 2, 9, 8, 8, 7, 7, 6, 6, 6, 4, 6, 5, 5, 7, 4, 3, 6, 3, 2, 4, 3, 3, 7, 6, 5, 5, 5, 5, 9, 8, 7, 7, 6, 3, 6, 4, 3, 9, 6, 3, 5, 4, 2, 5, 4, 2, 5, 4, 4, 9, 8, 8, 5, 5, 3
 |10, 7, 6, 8, 7, 5, 10, 7, 5, 3, 2, 1, 4, 4, 3, 4, 4, 3, 9, 9, 9, 8, 6, 6, 8, 8, 5, 6, 4, 2, 7, 7, 7, 9, 8, 8, 4, 4, 3, 9, 6, 2, 8, 6, 6, 8, 4, 4, 5, 4, 4, 1, 1, 1, 10, 6, 4, 6, 5, 3, 6, 6, 5, 9, 8, 7, 7, 7, 6, 6, 6, 6, 8, 4, 3, 8, 7, 5, 10, 7, 5, 7, 5, 2, 8, 7, 5, 2, 1, 1, 10, 4, 1, 1, 1, 1, 6, 5, 2, 7, 5, 4, 6, 5, 3, 7, 6, 4, 5, 4, 2, 7, 4, 3, 5, 5, 5, 6, 5, 4, 7, 4, 3, 9, 9, 9, 5, 5, 5, 9, 9, 9, 9, 7, 4, 10, 9, 9, 6, 6, 5, 6, 5, 3, 8, 7, 7, 8, 5, 2
 |9, 9, 8, 5, 3, 2, 6, 6, 6, 7, 7, 4, 4, 4, 4, 6, 4, 2, 9, 3, 1, 2, 2, 1, 7, 7, 6, 10, 4, 2, 10, 8, 7, 4, 3, 3, 2, 1, 1, 9, 9, 9, 7, 5, 4, 3, 2, 1, 10, 7, 7, 2, 2, 1, 9, 7, 5, 4, 4, 4, 10, 8, 8, 5, 5, 4, 6, 5, 1, 2, 2, 2, 1, 1, 1, 7, 4, 3, 4, 3, 2, 10, 6, 5, 5, 5, 2, 9, 6, 1, 9, 8, 8, 5, 5, 1, 7, 5, 3, 6, 4, 1, 7, 7, 2, 6, 3, 3, 5, 5, 3, 8, 5, 4, 7, 7, 5, 5, 3, 2, 6, 6, 5, 5, 5, 4, 9, 7, 7, 9, 8, 7, 5, 4, 4, 6, 6, 5, 4, 2, 2, 5, 3, 2, 1, 1, 1, 8, 5, 3
 |4, 4, 4, 6, 6, 5, 10, 10, 10, 9, 8, 6, 5, 2, 2, 4, 4, 4, 8, 4, 2, 8, 7, 7, 10, 8, 8, 8, 7, 6, 7, 5, 3, 4, 3, 3, 7, 6, 5, 8, 7, 7, 9, 8, 7, 7, 4, 2, 5, 5, 2, 9, 8, 8, 7, 5, 4, 8, 6, 4, 9, 5, 4, 9, 6, 6, 5, 3, 2, 10, 10, 10, 4, 3, 1, 3, 3, 3, 6, 5, 3, 9, 8, 8, 6, 5, 5, 2, 2, 2, 5, 5, 5, 9, 8, 7, 6, 4, 1, 5, 5, 5, 5, 2, 1, 9, 8, 8, 10, 5, 4, 4, 4, 4, 5, 3, 1, 9, 8, 7, 4, 4, 4, 9, 8, 7, 5, 4, 4, 3, 3, 3, 10, 6, 4, 8, 7, 6, 5, 5, 5, 4, 3, 3, 5, 3, 3, 8, 6, 5
 |4, 3, 3, 7, 4, 3, 4, 3, 3, 7, 7, 6, 3, 2, 2, 1, 1, 1, 2, 1, 1, 7, 4, 2, 9, 9, 9, 2, 1, 1, 9, 8, 8, 8, 8, 6, 9, 7, 6, 2, 1, 1, 8, 8, 7, 9, 6, 6, 9, 7, 7, 9, 6, 5, 8, 7, 5, 3, 2, 2, 6, 5, 5, 10, 9, 9, 3, 2, 2, 7, 5, 4, 8, 7, 6, 2, 2, 1, 6, 5, 3, 6, 6, 5, 6, 5, 4, 2, 1, 1, 1, 1, 1, 3, 3, 3, 9, 9, 8, 8, 7, 4, 8, 6, 6, 6, 5, 5, 8, 8, 8, 4, 3, 3, 6, 5, 4, 8, 6, 4, 1, 1, 1, 7, 7, 7, 9, 6, 2, 5, 3, 1, 6, 4, 4, 8, 8, 5, 7, 3, 3, 4, 4, 4, 7, 7, 7, 4, 3, 3
 |2, 2, 2, 5, 4, 4, 8, 6, 5, 8, 8, 8, 8, 7, 7, 8, 4, 2, 8, 6, 4, 9, 8, 6, 9, 9, 8, 7, 4, 3, 3, 2, 2, 4, 4, 4, 3, 2, 2, 9, 7, 3, 5, 5, 5, 9, 8, 8, 1, 1, 1, 10, 8, 6, 5, 4, 4, 9, 9, 7, 6, 6, 5, 8, 6, 6, 9, 9, 8, 6, 4, 4, 5, 4, 4, 8, 5, 2, 10, 5, 4, 10, 6, 5, 9, 8, 8, 5, 3, 3, 7, 6, 5, 5, 3, 3, 8, 7, 5, 1, 1, 1, 7, 5, 2, 8, 8, 4, 4, 4, 2, 10, 10, 10, 9, 6, 2, 5, 4, 2, 8, 7, 7, 2, 1, 1, 2, 2, 2, 9, 9, 8, 7, 5, 5, 6, 5, 4, 9, 8, 7, 7, 3, 1, 2, 2, 1, 7, 4, 3|];